&INPUTPH
  outdir = '/home/rr/repos/QE-exercises/diamond-lattice-relax/'
  prefix = 'diamond'
  tr2_ph = 1d-14
  ldisp = .true.
!  recover = .true.
  nq1 = 6
  nq2 = 6
  nq3 = 6
  fildyn = 'diamond.dyn'
/

