 &control 
 calculation = 'scf' 
 restart_mode = 'from_scratch' 
 prefix = 'diamond' 
 pseudo_dir = '../../pseudo/' 
 outdir = '/home/rr/repos/QE-exercises/diamond-lattice/lattice_06.50' 
 / 

 &system 
 celldm(1) =    6.500 
 ibrav = 2 
 nat = 2 
 ntyp = 1 
 ecutwfc = 90 
 / 

 &electrons 
 mixing_beta = 0.2 
 conv_thr =  1e-8 
 diagonalization = 'david' 
 diago_thr_init = 1e-4 
 / 

 ATOMIC_SPECIES 
 C  12.000  C.pbe-n-kjpaw_psl.1.0.0.UPF 
 K_POINTS automatic 
 4 4 4   0 0 0 

 ATOMIC_POSITIONS crystal 
 C   0.12500000000000   0.12500000000000   0.12500000000000 
 C   0.87500000000000   0.87500000000000   0.87500000000000 

