&control
    calculation = 'bands'
    restart_mode = 'from_scratch'
    prefix = 'diamond'
    pseudo_dir = '../pseudo/'
    outdir = '/home/rr/repos/qe-tut/diamond-scf/'
/

&system
    celldm(1) = 6.5674
    ibrav = 2
    nat = 2
    ntyp = 1
    ecutwfc = 90
    nbnd=8
/

&electrons
    mixing_beta = 0.2
    conv_thr =  1e-8
    diagonalization = 'david'
    diago_thr_init = 1e-4
/

ATOMIC_SPECIES
C  12.000  C.pbe-n-kjpaw_psl.1.0.0.UPF

K_POINTS {crystal_b}
5
  0.0000 0.5000 0.0000 20  !L
  0.0000 0.0000 0.0000 30  !G
  -0.500 0.0000 -0.500 10  !X
  -0.375 0.2500 -0.375 30  !U
  0.0000 0.0000 0.0000 20  !G

ATOMIC_POSITIONS crystal
C   0.12500000000000   0.12500000000000   0.12500000000000   
C   0.87500000000000   0.87500000000000   0.87500000000000  


